\ Equation counts
\     Total        E        G        L        N        X        C        B
\	234	234	0	0
\
\ Variable counts
\                  x        b        i      s1s      s2s       sc       si
\     Total     cont   binary  integer     sos1     sos2    scont     sint
\	40	40

\ Nonzero counts
\     Total    const       NL      DLL
\
\
Minimize
 obj: [ - 1.5 x_1 * x_1 + 3.0 x_1 * x_4 + 2.5 x_1 * x_9 - 16.5 x_1 * x_11 - 8.5 x_1 * x_18 + 22.0 x_1 * x_22 - 11.5 x_1 * x_26 - 19.5 x_1 * x_27 + 8.0 x_1 * x_28 - 10.5 x_1 * x_32 - 20.0 x_1 * x_35 - 16.5 x_1 * x_39 + 9.0 x_2 * x_4 + 15.5 x_2 * x_12 + 4.5 x_2 * x_14 + 14.5 x_2 * x_20 - 22.0 x_2 * x_21 + 11.0 x_2 * x_24 + 18.0 x_2 * x_31 - 6.5 x_2 * x_35 + 16.0 x_2 * x_37 + 20.5 x_2 * x_38 + 23.5 x_2 * x_40 - 16.0 x_3 * x_6 + 10.5 x_3 * x_8 - 5.0 x_3 * x_11 + 12.0 x_3 * x_14 + 21.0 x_3 * x_22 - 0.5 x_3 * x_24 + 7.5 x_3 * x_25 - 10.5 x_3 * x_37 + 3.0 x_4 * x_1 + 9.0 x_4 * x_2 - 10.5 x_4 * x_4 - 20.5 x_4 * x_11 + 5.5 x_4 * x_12 + 23.0 x_4 * x_13 + 12.0 x_4 * x_14 - 15.5 x_4 * x_18 + 8.5 x_4 * x_22 - 3.5 x_4 * x_23 + 5.0 x_4 * x_29 - 11.0 x_4 * x_30 + 1.5 x_4 * x_31 + 1.5 x_4 * x_32 + 6.0 x_4 * x_39 + 17.5 x_5 * x_5 - 17.5 x_5 * x_6 - 20.0 x_5 * x_12 + 24.5 x_5 * x_13 + 2.0 x_5 * x_14 - 23.5 x_5 * x_18 - 19.5 x_5 * x_23 + 8.5 x_5 * x_24 + 14.5 x_5 * x_25 + 16.0 x_5 * x_26 + 5.0 x_5 * x_27 + 24.0 x_5 * x_30 - 7.5 x_5 * x_37 - 0.5 x_5 * x_40 - 16.0 x_6 * x_3 - 17.5 x_6 * x_5 + 17.5 x_6 * x_10 - 21.5 x_6 * x_14 + 24.0 x_6 * x_21 + 4.0 x_6 * x_22 + 1.0 x_6 * x_24 - 7.5 x_6 * x_27 - 13.5 x_6 * x_29 + 24.0 x_6 * x_30 + 14.0 x_6 * x_34 - 11.5 x_6 * x_37 - 21.0 x_7 * x_10 - 20.5 x_7 * x_11 + 21.0 x_7 * x_13 - 20.0 x_7 * x_18 - 23.5 x_7 * x_19 - 1.5 x_7 * x_24 - 7.0 x_7 * x_25 + 2.0 x_7 * x_30 - 20.5 x_7 * x_32 - 19.5 x_7 * x_33 + 23.5 x_7 * x_37 + 10.5 x_8 * x_3 - 3.5 x_8 * x_9 - 5.0 x_8 * x_11 + 8.0 x_8 * x_13 + 18.0 x_8 * x_17 - 20.5 x_8 * x_21 + 23.0 x_8 * x_28 + 8.5 x_8 * x_31 - 19.0 x_8 * x_33 - 2.5 x_8 * x_37 + 4.5 x_8 * x_40 + 2.5 x_9 * x_1 - 3.5 x_9 * x_8 + 2.5 x_9 * x_9 - 19.0 x_9 * x_14 - 7.0 x_9 * x_21 - 15.0 x_9 * x_23 - 23.0 x_9 * x_32 - 12.5 x_9 * x_34 + 24.0 x_9 * x_35 + 17.5 x_10 * x_6 - 21.0 x_10 * x_7 - 15.5 x_10 * x_12 - 16.0 x_10 * x_13 - 8.5 x_10 * x_14 - 4.0 x_10 * x_20 - 19.0 x_10 * x_21 - 12.5 x_10 * x_29 - 3.5 x_10 * x_34 - 20.0 x_10 * x_40 - 16.5 x_11 * x_1 - 5.0 x_11 * x_3 - 20.5 x_11 * x_4 - 20.5 x_11 * x_7 - 5.0 x_11 * x_8 + 14.0 x_11 * x_12 - 4.5 x_11 * x_15 - 9.5 x_11 * x_16 + 18.0 x_11 * x_26 + 2.5 x_11 * x_29 + 1.5 x_11 * x_30 - 13.5 x_11 * x_31 + 22.5 x_11 * x_32 - 17.5 x_11 * x_38 + 15.5 x_12 * x_2 + 5.5 x_12 * x_4 - 20.0 x_12 * x_5 - 15.5 x_12 * x_10 + 14.0 x_12 * x_11 - 10.0 x_12 * x_12 - 10.5 x_12 * x_14 - 15.0 x_12 * x_21 - 9.0 x_12 * x_26 - 23.5 x_12 * x_39 - 24.5 x_12 * x_40 + 23.0 x_13 * x_4 + 24.5 x_13 * x_5 + 21.0 x_13 * x_7 + 8.0 x_13 * x_8 - 16.0 x_13 * x_10 - 20.0 x_13 * x_14 + 12.0 x_13 * x_15 + 3.5 x_13 * x_16 - 12.5 x_13 * x_19 + 17.5 x_13 * x_24 + 10.0 x_13 * x_25 - 7.5 x_13 * x_31 + 17.0 x_13 * x_34 - 0.5 x_13 * x_36 - 19.0 x_13 * x_37 - 15.5 x_13 * x_40 + 4.5 x_14 * x_2 + 12.0 x_14 * x_3 + 12.0 x_14 * x_4 + 2.0 x_14 * x_5 - 21.5 x_14 * x_6 - 19.0 x_14 * x_9 - 8.5 x_14 * x_10 - 10.5 x_14 * x_12 - 20.0 x_14 * x_13 - 24.0 x_14 * x_15 - 3.5 x_14 * x_16 + 6.5 x_14 * x_17 + 4.5 x_14 * x_19 + 17.5 x_14 * x_21 - 13.0 x_14 * x_25 - 8.0 x_14 * x_26 - 18.0 x_14 * x_29 + 10.5 x_14 * x_31 - 4.5 x_14 * x_33 - 5.5 x_14 * x_37 - 1.0 x_14 * x_38 - 4.5 x_15 * x_11 + 12.0 x_15 * x_13 - 24.0 x_15 * x_14 + 1.0 x_15 * x_19 + 3.5 x_15 * x_26 - 15.0 x_15 * x_33 - 9.5 x_16 * x_11 + 3.5 x_16 * x_13 - 3.5 x_16 * x_14 - 20.0 x_16 * x_16 - 20.0 x_16 * x_23 + 21.0 x_16 * x_24 - 5.0 x_16 * x_29 + 2.0 x_16 * x_31 + 24.5 x_16 * x_34 + 23.5 x_16 * x_37 - 14.5 x_16 * x_40 + 18.0 x_17 * x_8 + 6.5 x_17 * x_14 + 12.5 x_17 * x_18 - 18.5 x_17 * x_21 - 8.5 x_17 * x_27 + 6.5 x_17 * x_28 - 12.0 x_17 * x_29 - 2.5 x_17 * x_30 - 18.5 x_17 * x_36 - 8.5 x_18 * x_1 - 15.5 x_18 * x_4 - 23.5 x_18 * x_5 - 20.0 x_18 * x_7 + 12.5 x_18 * x_17 + 23.5 x_18 * x_25 + 6.5 x_18 * x_28 - 21.5 x_18 * x_29 + 0.5 x_18 * x_30 + 5.5 x_18 * x_31 + 18.5 x_18 * x_36 - 22.0 x_18 * x_37 + 1.5 x_18 * x_39 - 23.5 x_19 * x_7 - 12.5 x_19 * x_13 + 4.5 x_19 * x_14 + 1.0 x_19 * x_15 + 12.5 x_19 * x_20 - 12.0 x_19 * x_25 + 9.5 x_19 * x_27 + 13.0 x_19 * x_28 + 14.5 x_20 * x_2 - 4.0 x_20 * x_10 + 12.5 x_20 * x_19 - 9.0 x_20 * x_21 + 7.5 x_20 * x_24 - 12.0 x_20 * x_29 + 2.0 x_20 * x_31 + 17.0 x_20 * x_32 - 22.0 x_21 * x_2 + 24.0 x_21 * x_6 - 20.5 x_21 * x_8 - 7.0 x_21 * x_9 - 19.0 x_21 * x_10 - 15.0 x_21 * x_12 + 17.5 x_21 * x_14 - 18.5 x_21 * x_17 - 9.0 x_21 * x_20 - 8.5 x_21 * x_25 - 2.5 x_21 * x_29 - 14.0 x_21 * x_30 + 17.5 x_21 * x_31 - 6.5 x_21 * x_33 + 22.0 x_21 * x_36 + 21.0 x_21 * x_39 + 22.0 x_22 * x_1 + 21.0 x_22 * x_3 + 8.5 x_22 * x_4 + 4.0 x_22 * x_6 - 18.0 x_22 * x_22 + 16.5 x_22 * x_27 + 4.5 x_22 * x_30 - 5.0 x_22 * x_33 - 20.0 x_22 * x_34 + 15.0 x_22 * x_35 - 15.5 x_22 * x_39 + 9.0 x_22 * x_40 - 3.5 x_23 * x_4 - 19.5 x_23 * x_5 - 15.0 x_23 * x_9 - 20.0 x_23 * x_16 + 4.5 x_23 * x_24 - 17.5 x_23 * x_25 - 14.5 x_23 * x_28 + 0.5 x_23 * x_30 - 2.0 x_23 * x_34 + 11.0 x_24 * x_2 - 0.5 x_24 * x_3 + 8.5 x_24 * x_5 + 1.0 x_24 * x_6 - 1.5 x_24 * x_7 + 17.5 x_24 * x_13 + 21.0 x_24 * x_16 + 7.5 x_24 * x_20 + 4.5 x_24 * x_23 - 22.0 x_24 * x_30 - 11.0 x_24 * x_31 - 9.5 x_24 * x_33 - 8.0 x_24 * x_35 - 24.0 x_24 * x_36 + 5.5 x_24 * x_39 + 7.5 x_25 * x_3 + 14.5 x_25 * x_5 - 7.0 x_25 * x_7 + 10.0 x_25 * x_13 - 13.0 x_25 * x_14 + 23.5 x_25 * x_18 - 12.0 x_25 * x_19 - 8.5 x_25 * x_21 - 17.5 x_25 * x_23 + 8.0 x_25 * x_25 - 5.5 x_25 * x_31 + 0.5 x_25 * x_32 + 6.5 x_25 * x_33 + 23.0 x_25 * x_34 - 19.0 x_25 * x_35 - 1.0 x_25 * x_40 - 11.5 x_26 * x_1 + 16.0 x_26 * x_5 + 18.0 x_26 * x_11 - 9.0 x_26 * x_12 - 8.0 x_26 * x_14 + 3.5 x_26 * x_15 + 5.0 x_26 * x_31 - 19.5 x_27 * x_1 + 5.0 x_27 * x_5 - 7.5 x_27 * x_6 - 8.5 x_27 * x_17 + 9.5 x_27 * x_19 + 16.5 x_27 * x_22 - 4.0 x_27 * x_33 - 10.5 x_27 * x_40 + 8.0 x_28 * x_1 + 23.0 x_28 * x_8 + 6.5 x_28 * x_17 + 6.5 x_28 * x_18 + 13.0 x_28 * x_19 - 14.5 x_28 * x_23 - 19.0 x_28 * x_28 + 12.0 x_28 * x_31 - 21.0 x_28 * x_34 + 4.5 x_28 * x_37 + 6.5 x_28 * x_38 - 23.5 x_28 * x_40 + 5.0 x_29 * x_4 - 13.5 x_29 * x_6 - 12.5 x_29 * x_10 + 2.5 x_29 * x_11 - 18.0 x_29 * x_14 - 5.0 x_29 * x_16 - 12.0 x_29 * x_17 - 21.5 x_29 * x_18 - 12.0 x_29 * x_20 - 2.5 x_29 * x_21 - 16.0 x_29 * x_34 - 18.5 x_29 * x_40 - 11.0 x_30 * x_4 + 24.0 x_30 * x_5 + 24.0 x_30 * x_6 + 2.0 x_30 * x_7 + 1.5 x_30 * x_11 - 2.5 x_30 * x_17 + 0.5 x_30 * x_18 - 14.0 x_30 * x_21 + 4.5 x_30 * x_22 + 0.5 x_30 * x_23 - 22.0 x_30 * x_24 - 22.0 x_30 * x_30 + 3.0 x_30 * x_36 + 16.5 x_30 * x_39 + 18.0 x_31 * x_2 + 1.5 x_31 * x_4 + 8.5 x_31 * x_8 - 13.5 x_31 * x_11 - 7.5 x_31 * x_13 + 10.5 x_31 * x_14 + 2.0 x_31 * x_16 + 5.5 x_31 * x_18 + 2.0 x_31 * x_20 + 17.5 x_31 * x_21 - 11.0 x_31 * x_24 - 5.5 x_31 * x_25 + 5.0 x_31 * x_26 + 12.0 x_31 * x_28 + 16.5 x_31 * x_33 - 20.5 x_31 * x_37 - 18.0 x_31 * x_38 - 5.5 x_31 * x_39 - 10.5 x_32 * x_1 + 1.5 x_32 * x_4 - 20.5 x_32 * x_7 - 23.0 x_32 * x_9 + 22.5 x_32 * x_11 + 17.0 x_32 * x_20 + 0.5 x_32 * x_25 - 13.0 x_32 * x_33 + 6.0 x_32 * x_34 - 13.5 x_32 * x_35 + 4.0 x_32 * x_39 - 19.5 x_33 * x_7 - 19.0 x_33 * x_8 - 4.5 x_33 * x_14 - 15.0 x_33 * x_15 - 6.5 x_33 * x_21 - 5.0 x_33 * x_22 - 9.5 x_33 * x_24 + 6.5 x_33 * x_25 - 4.0 x_33 * x_27 + 16.5 x_33 * x_31 - 13.0 x_33 * x_32 + 16.5 x_33 * x_33 + 6.0 x_33 * x_35 - 5.0 x_33 * x_39 + 14.0 x_34 * x_6 - 12.5 x_34 * x_9 - 3.5 x_34 * x_10 + 17.0 x_34 * x_13 + 24.5 x_34 * x_16 - 20.0 x_34 * x_22 - 2.0 x_34 * x_23 + 23.0 x_34 * x_25 - 21.0 x_34 * x_28 - 16.0 x_34 * x_29 + 6.0 x_34 * x_32 - 10.5 x_34 * x_37 - 19.0 x_34 * x_38 - 20.0 x_35 * x_1 - 6.5 x_35 * x_2 + 24.0 x_35 * x_9 + 15.0 x_35 * x_22 - 8.0 x_35 * x_24 - 19.0 x_35 * x_25 - 13.5 x_35 * x_32 + 6.0 x_35 * x_33 - 24.5 x_35 * x_36 + 24.5 x_35 * x_39 + 19.0 x_35 * x_40 - 0.5 x_36 * x_13 - 18.5 x_36 * x_17 + 18.5 x_36 * x_18 + 22.0 x_36 * x_21 - 24.0 x_36 * x_24 + 3.0 x_36 * x_30 - 24.5 x_36 * x_35 + 17.5 x_36 * x_39 - 23.5 x_36 * x_40 + 16.0 x_37 * x_2 - 10.5 x_37 * x_3 - 7.5 x_37 * x_5 - 11.5 x_37 * x_6 + 23.5 x_37 * x_7 - 2.5 x_37 * x_8 - 19.0 x_37 * x_13 - 5.5 x_37 * x_14 + 23.5 x_37 * x_16 - 22.0 x_37 * x_18 + 4.5 x_37 * x_28 - 20.5 x_37 * x_31 - 10.5 x_37 * x_34 + 20.5 x_38 * x_2 - 17.5 x_38 * x_11 - 1.0 x_38 * x_14 + 6.5 x_38 * x_28 - 18.0 x_38 * x_31 - 19.0 x_38 * x_34 - 16.5 x_39 * x_1 + 6.0 x_39 * x_4 - 23.5 x_39 * x_12 + 1.5 x_39 * x_18 + 21.0 x_39 * x_21 - 15.5 x_39 * x_22 + 5.5 x_39 * x_24 + 16.5 x_39 * x_30 - 5.5 x_39 * x_31 + 4.0 x_39 * x_32 - 5.0 x_39 * x_33 + 24.5 x_39 * x_35 + 17.5 x_39 * x_36 + 24.5 x_39 * x_39 - 1.0 x_39 * x_40 + 23.5 x_40 * x_2 - 0.5 x_40 * x_5 + 4.5 x_40 * x_8 - 20.0 x_40 * x_10 - 24.5 x_40 * x_12 - 15.5 x_40 * x_13 - 14.5 x_40 * x_16 + 9.0 x_40 * x_22 - 1.0 x_40 * x_25 - 10.5 x_40 * x_27 - 23.5 x_40 * x_28 - 18.5 x_40 * x_29 + 19.0 x_40 * x_35 - 23.5 x_40 * x_36 - 1.0 x_40 * x_39 - 21.0 x_40 * x_40 ] + 39.0 x_1 + 0.0 x_2 + 0.0 x_3 + 0.0 x_4 + 0.0 x_5 + 0.0 x_6 + 0.0 x_7 + 0.0 x_8 + 0.0 x_9 + 0.0 x_10 + 0.0 x_11 + 0.0 x_12 + 0.0 x_13 + 34.0 x_14 + 18.0 x_15 - 20.0 x_16 + 0.0 x_17 + 0.0 x_18 + 0.0 x_19 + 42.0 x_20 + 0.0 x_21 + 0.0 x_22 + 0.0 x_23 + 0.0 x_24 - 27.0 x_25 + 0.0 x_26 - 26.0 x_27 + 0.0 x_28 + 0.0 x_29 + 0.0 x_30 + 49.0 x_31 + 35.0 x_32 - 32.0 x_33 + 0.0 x_34 + 0.0 x_35 + 0.0 x_36 + 0.0 x_37 + 0.0 x_38 + 23.0 x_39 + 0.0 x_40

Subject To
 e2: [  x_1 * x_9 ] = 0.0
 e3: [  x_1 * x_26 ] = 0.0
 e4: [  x_1 * x_35 ] = 0.0
 e5: [  x_1 * x_39 ] = 0.0
 e6: [  x_2 * x_14 ] = 0.0
 e7: [  x_2 * x_21 ] = 0.0
 e8: [  x_2 * x_24 ] = 0.0
 e9: [  x_2 * x_35 ] = 0.0
 e10: [  x_2 * x_37 ] = 0.0
 e11: [  x_3 * x_6 ] = 0.0
 e12: [  x_3 * x_8 ] = 0.0
 e13: [  x_3 * x_14 ] = 0.0
 e14: [  x_3 * x_22 ] = 0.0
 e15: [  x_4 * x_2 ] = 0.0
 e16: [  x_4 * x_12 ] = 0.0
 e17: [  x_4 * x_13 ] = 0.0
 e18: [  x_4 * x_22 ] = 0.0
 e19: [  x_4 * x_29 ] = 0.0
 e20: [  x_4 * x_30 ] = 0.0
 e21: [  x_4 * x_31 ] = 0.0
 e22: [  x_4 * x_32 ] = 0.0
 e23: [  x_5 * x_6 ] = 0.0
 e24: [  x_5 * x_12 ] = 0.0
 e25: [  x_5 * x_13 ] = 0.0
 e26: [  x_5 * x_23 ] = 0.0
 e27: [  x_6 * x_5 ] = 0.0
 e28: [  x_6 * x_22 ] = 0.0
 e29: [  x_6 * x_30 ] = 0.0
 e30: [  x_6 * x_34 ] = 0.0
 e31: [  x_6 * x_37 ] = 0.0
 e32: [  x_7 * x_10 ] = 0.0
 e33: [  x_7 * x_11 ] = 0.0
 e34: [  x_7 * x_18 ] = 0.0
 e35: [  x_7 * x_24 ] = 0.0
 e36: [  x_7 * x_25 ] = 0.0
 e37: [  x_8 * x_9 ] = 0.0
 e38: [  x_8 * x_11 ] = 0.0
 e39: [  x_8 * x_17 ] = 0.0
 e40: [  x_8 * x_28 ] = 0.0
 e41: [  x_8 * x_33 ] = 0.0
 e42: [  x_8 * x_37 ] = 0.0
 e43: [  x_9 * x_23 ] = 0.0
 e44: [  x_10 * x_7 ] = 0.0
 e45: [  x_10 * x_12 ] = 0.0
 e46: [  x_10 * x_13 ] = 0.0
 e47: [  x_10 * x_20 ] = 0.0
 e48: [  x_10 * x_34 ] = 0.0
 e49: [  x_10 * x_40 ] = 0.0
 e50: [  x_11 * x_1 ] = 0.0
 e51: [  x_11 * x_15 ] = 0.0
 e52: [  x_11 * x_29 ] = 0.0
 e53: [  x_11 * x_31 ] = 0.0
 e54: [  x_11 * x_38 ] = 0.0
 e55: [  x_12 * x_2 ] = 0.0
 e56: [  x_12 * x_4 ] = 0.0
 e57: [  x_12 * x_11 ] = 0.0
 e58: [  x_12 * x_12 ] = 0.0
 e59: [  x_12 * x_14 ] = 0.0
 e60: [  x_12 * x_26 ] = 0.0
 e61: [  x_12 * x_39 ] = 0.0
 e62: [  x_12 * x_40 ] = 0.0
 e63: [  x_13 * x_4 ] = 0.0
 e64: [  x_13 * x_5 ] = 0.0
 e65: [  x_13 * x_7 ] = 0.0
 e66: [  x_13 * x_25 ] = 0.0
 e67: [  x_13 * x_34 ] = 0.0
 e68: [  x_13 * x_37 ] = 0.0
 e69: [  x_13 * x_40 ] = 0.0
 e70: [  x_14 * x_2 ] = 0.0
 e71: [  x_14 * x_4 ] = 0.0
 e72: [  x_14 * x_5 ] = 0.0
 e73: [  x_14 * x_6 ] = 0.0
 e74: [  x_14 * x_12 ] = 0.0
 e75: [  x_14 * x_15 ] = 0.0
 e76: [  x_14 * x_16 ] = 0.0
 e77: [  x_14 * x_17 ] = 0.0
 e78: [  x_14 * x_19 ] = 0.0
 e79: [  x_14 * x_25 ] = 0.0
 e80: [  x_14 * x_29 ] = 0.0
 e81: [  x_15 * x_11 ] = 0.0
 e82: [  x_16 * x_11 ] = 0.0
 e83: [  x_16 * x_13 ] = 0.0
 e84: [  x_16 * x_14 ] = 0.0
 e85: [  x_16 * x_23 ] = 0.0
 e86: [  x_16 * x_29 ] = 0.0
 e87: [  x_16 * x_31 ] = 0.0
 e88: [  x_17 * x_21 ] = 0.0
 e89: [  x_17 * x_28 ] = 0.0
 e90: [  x_17 * x_29 ] = 0.0
 e91: [  x_17 * x_36 ] = 0.0
 e92: [  x_18 * x_1 ] = 0.0
 e93: [  x_18 * x_7 ] = 0.0
 e94: [  x_18 * x_30 ] = 0.0
 e95: [  x_18 * x_31 ] = 0.0
 e96: [  x_18 * x_36 ] = 0.0
 e97: [  x_18 * x_37 ] = 0.0
 e98: [  x_19 * x_7 ] = 0.0
 e99: [  x_19 * x_13 ] = 0.0
 e100: [  x_19 * x_27 ] = 0.0
 e101: [  x_19 * x_28 ] = 0.0
 e102: [  x_20 * x_2 ] = 0.0
 e103: [  x_20 * x_19 ] = 0.0
 e104: [  x_20 * x_24 ] = 0.0
 e105: [  x_20 * x_29 ] = 0.0
 e106: [  x_21 * x_2 ] = 0.0
 e107: [  x_21 * x_6 ] = 0.0
 e108: [  x_21 * x_8 ] = 0.0
 e109: [  x_21 * x_10 ] = 0.0
 e110: [  x_21 * x_17 ] = 0.0
 e111: [  x_21 * x_20 ] = 0.0
 e112: [  x_21 * x_25 ] = 0.0
 e113: [  x_21 * x_29 ] = 0.0
 e114: [  x_21 * x_33 ] = 0.0
 e115: [  x_21 * x_36 ] = 0.0
 e116: [  x_21 * x_39 ] = 0.0
 e117: [  x_22 * x_4 ] = 0.0
 e118: [  x_22 * x_22 ] = 0.0
 e119: [  x_22 * x_27 ] = 0.0
 e120: [  x_22 * x_30 ] = 0.0
 e121: [  x_22 * x_39 ] = 0.0
 e122: [  x_22 * x_40 ] = 0.0
 e123: [  x_23 * x_5 ] = 0.0
 e124: [  x_23 * x_9 ] = 0.0
 e125: [  x_23 * x_24 ] = 0.0
 e126: [  x_23 * x_25 ] = 0.0
 e127: [  x_23 * x_28 ] = 0.0
 e128: [  x_24 * x_3 ] = 0.0
 e129: [  x_24 * x_16 ] = 0.0
 e130: [  x_24 * x_30 ] = 0.0
 e131: [  x_24 * x_31 ] = 0.0
 e132: [  x_24 * x_33 ] = 0.0
 e133: [  x_24 * x_35 ] = 0.0
 e134: [  x_24 * x_39 ] = 0.0
 e135: [  x_25 * x_3 ] = 0.0
 e136: [  x_25 * x_13 ] = 0.0
 e137: [  x_25 * x_14 ] = 0.0
 e138: [  x_25 * x_19 ] = 0.0
 e139: [  x_25 * x_21 ] = 0.0
 e140: [  x_25 * x_23 ] = 0.0
 e141: [  x_25 * x_25 ] = 0.0
 e142: [  x_25 * x_31 ] = 0.0
 e143: [  x_25 * x_33 ] = 0.0
 e144: [  x_25 * x_34 ] = 0.0
 e145: [  x_25 * x_35 ] = 0.0
 e146: [  x_26 * x_5 ] = 0.0
 e147: [  x_26 * x_11 ] = 0.0
 e148: [  x_26 * x_14 ] = 0.0
 e149: [  x_27 * x_1 ] = 0.0
 e150: [  x_27 * x_19 ] = 0.0
 e151: [  x_27 * x_22 ] = 0.0
 e152: [  x_27 * x_33 ] = 0.0
 e153: [  x_28 * x_8 ] = 0.0
 e154: [  x_28 * x_31 ] = 0.0
 e155: [  x_28 * x_37 ] = 0.0
 e156: [  x_28 * x_38 ] = 0.0
 e157: [  x_28 * x_40 ] = 0.0
 e158: [  x_29 * x_4 ] = 0.0
 e159: [  x_29 * x_6 ] = 0.0
 e160: [  x_29 * x_10 ] = 0.0
 e161: [  x_29 * x_11 ] = 0.0
 e162: [  x_29 * x_14 ] = 0.0
 e163: [  x_29 * x_18 ] = 0.0
 e164: [  x_29 * x_20 ] = 0.0
 e165: [  x_29 * x_21 ] = 0.0
 e166: [  x_29 * x_34 ] = 0.0
 e167: [  x_29 * x_40 ] = 0.0
 e168: [  x_30 * x_5 ] = 0.0
 e169: [  x_30 * x_6 ] = 0.0
 e170: [  x_30 * x_7 ] = 0.0
 e171: [  x_30 * x_11 ] = 0.0
 e172: [  x_30 * x_17 ] = 0.0
 e173: [  x_30 * x_18 ] = 0.0
 e174: [  x_30 * x_21 ] = 0.0
 e175: [  x_30 * x_22 ] = 0.0
 e176: [  x_30 * x_30 ] = 0.0
 e177: [  x_31 * x_2 ] = 0.0
 e178: [  x_31 * x_4 ] = 0.0
 e179: [  x_31 * x_8 ] = 0.0
 e180: [  x_31 * x_14 ] = 0.0
 e181: [  x_31 * x_24 ] = 0.0
 e182: [  x_31 * x_25 ] = 0.0
 e183: [  x_31 * x_26 ] = 0.0
 e184: [  x_31 * x_33 ] = 0.0
 e185: [  x_32 * x_4 ] = 0.0
 e186: [  x_32 * x_7 ] = 0.0
 e187: [  x_32 * x_11 ] = 0.0
 e188: [  x_32 * x_33 ] = 0.0
 e189: [  x_32 * x_39 ] = 0.0
 e190: [  x_33 * x_7 ] = 0.0
 e191: [  x_33 * x_21 ] = 0.0
 e192: [  x_33 * x_22 ] = 0.0
 e193: [  x_33 * x_24 ] = 0.0
 e194: [  x_33 * x_25 ] = 0.0
 e195: [  x_33 * x_27 ] = 0.0
 e196: [  x_33 * x_39 ] = 0.0
 e197: [  x_34 * x_10 ] = 0.0
 e198: [  x_34 * x_16 ] = 0.0
 e199: [  x_34 * x_22 ] = 0.0
 e200: [  x_34 * x_23 ] = 0.0
 e201: [  x_34 * x_29 ] = 0.0
 e202: [  x_34 * x_38 ] = 0.0
 e203: [  x_35 * x_1 ] = 0.0
 e204: [  x_35 * x_2 ] = 0.0
 e205: [  x_35 * x_32 ] = 0.0
 e206: [  x_35 * x_33 ] = 0.0
 e207: [  x_35 * x_36 ] = 0.0
 e208: [  x_35 * x_39 ] = 0.0
 e209: [  x_35 * x_40 ] = 0.0
 e210: [  x_36 * x_17 ] = 0.0
 e211: [  x_36 * x_21 ] = 0.0
 e212: [  x_36 * x_39 ] = 0.0
 e213: [  x_37 * x_6 ] = 0.0
 e214: [  x_37 * x_8 ] = 0.0
 e215: [  x_37 * x_14 ] = 0.0
 e216: [  x_37 * x_16 ] = 0.0
 e217: [  x_37 * x_31 ] = 0.0
 e218: [  x_38 * x_2 ] = 0.0
 e219: [  x_38 * x_14 ] = 0.0
 e220: [  x_38 * x_31 ] = 0.0
 e221: [  x_38 * x_34 ] = 0.0
 e222: [  x_39 * x_4 ] = 0.0
 e223: [  x_39 * x_18 ] = 0.0
 e224: [  x_39 * x_21 ] = 0.0
 e225: [  x_39 * x_22 ] = 0.0
 e226: [  x_39 * x_33 ] = 0.0
 e227: [  x_39 * x_36 ] = 0.0
 e228: [  x_39 * x_40 ] = 0.0
 e229: [  x_40 * x_16 ] = 0.0
 e230: [  x_40 * x_22 ] = 0.0
 e231: [  x_40 * x_25 ] = 0.0
 e232: [  x_40 * x_27 ] = 0.0
 e233: [  x_40 * x_28 ] = 0.0
 e234: [  x_40 * x_35 ] = 0.0
 e235: [  x_40 * x_40 ] = 0.0

Bounds
 x_1 <= 1.0
 x_2 <= 1.0
 x_3 <= 1.0
 x_4 <= 1.0
 x_5 <= 1.0
 x_6 <= 1.0
 x_7 <= 1.0
 x_8 <= 1.0
 x_9 <= 1.0
 x_10 <= 1.0
 x_11 <= 1.0
 x_12 <= 1.0
 x_13 <= 1.0
 x_14 <= 1.0
 x_15 <= 1.0
 x_16 <= 1.0
 x_17 <= 1.0
 x_18 <= 1.0
 x_19 <= 1.0
 x_20 <= 1.0
 x_21 <= 1.0
 x_22 <= 1.0
 x_23 <= 1.0
 x_24 <= 1.0
 x_25 <= 1.0
 x_26 <= 1.0
 x_27 <= 1.0
 x_28 <= 1.0
 x_29 <= 1.0
 x_30 <= 1.0
 x_31 <= 1.0
 x_32 <= 1.0
 x_33 <= 1.0
 x_34 <= 1.0
 x_35 <= 1.0
 x_36 <= 1.0
 x_37 <= 1.0
 x_38 <= 1.0
 x_39 <= 1.0
 x_40 <= 1.0

End